(set-logic ALL)
(declare-const k Int)
(declare-fun s () (_ BitVec k))
(declare-fun t () (_ BitVec k))
(assert (not (distinct (bvult s (bvshl t (bvudiv t t))) (bvult s (bvshl t (_ bv1 k))))))
(check-sat)
